<number of tasks>
20

<cycle time>
1000

<order strength>
0,195


<task times>
1 608
2 524
3 277
4 422
5 243
6 696
7 496
8 606
9 536
10 319
11 860
12 620
13 609
14 582
15 492
16 657
17 498
18 465
19 483
20 316

<precedence relations>
2,6
2,7
2,8
3,9
6,10
6,11
6,12
8,13
12,14
12,15
12,16
14,20
16,17
16,18
16,19

<end>
